NAME          COPTPROB
OBJSENSE
  MIN
ROWS
 N  __OBJ___
 L  C6      
 L  C9      
 L  C32     
 L  C39     
 L  C49     
 L  C59     
 L  C68     
 L  C69     
 L  C81     
 L  C87     
 L  C92     
 L  C96     
 L  C116    
 L  C117    
 L  C126    
 L  C129    
 L  C133    
 L  C136    
 L  C150    
 L  C151    
 L  C157    
 L  C176    
COLUMNS
    MARKER    'MARKER'                 'INTORG'
    x6        __OBJ___  228
    x6        C68       -1
    x6        C87       -1
    x79       __OBJ___  287
    x79       C116      -1
    x79       C151      -1
    x93       __OBJ___  335
    x93       C39       -1
    x93       C150      -1
    x272      __OBJ___  593
    x272      C39       -1
    x272      C116      -1
    x339      __OBJ___  80
    x339      C6        -1
    x339      C69       -1
    x545      __OBJ___  6
    x545      C49       -1
    x545      C81       -1
    x573      __OBJ___  21
    x573      C81       -1
    x573      C176      -1
    x597      __OBJ___  8
    x597      C9        -1
    x597      C136      -1
    x675      __OBJ___  302
    x675      C92       -1
    x675      C133      -1
    x726      __OBJ___  42
    x726      C32       -1
    x726      C151      -1
    x836      __OBJ___  7
    x836      C6        -1
    x836      C9        -1
    x874      __OBJ___  2
    x874      C32       -1
    x874      C96       -1
    x901      __OBJ___  349
    x901      C92       -1
    x901      C150      -1
    x1015     __OBJ___  87
    x1015     C117      -1
    x1015     C126      -1
    x1079     __OBJ___  6
    x1079     C6        -1
    x1079     C129      -1
    x1234     __OBJ___  169
    x1234     C157      -1
    x1264     __OBJ___  3
    x1264     C87       -1
    x1264     C136      -1
    x1283     __OBJ___  206
    x1283     C117      -1
    x1283     C157      -1
    x1316     __OBJ___  197
    x1316     C59       -1
    x1316     C157      -1
    x1343     __OBJ___  232
    x1343     C68       -1
    x1343     C176      -1
    x1348     __OBJ___  40
    x1348     C126      -1
    x1353     __OBJ___  81
    x1353     C49       -1
    x1353     C59       -1
    x1423     __OBJ___  79
    x1423     C129      -1
    x1423     C150      -1
    x1425     __OBJ___  81
    x1425     C69       -1
    x1425     C96       -1
    x1543     __OBJ___  227
    x1543     C126      -1
    x1543     C133      -1
    MARKER    'MARKER'                 'INTEND'
RHS
    RHS       __OBJ___  -7641
    RHS       C6        -1
    RHS       C9        -1
    RHS       C32       -1
    RHS       C39       -1
    RHS       C49       -1
    RHS       C59       -1
    RHS       C68       -1
    RHS       C69       -1
    RHS       C81       -1
    RHS       C87       -1
    RHS       C92       -1
    RHS       C96       -1
    RHS       C116      -1
    RHS       C117      -1
    RHS       C126      -1
    RHS       C129      -1
    RHS       C133      -1
    RHS       C136      -1
    RHS       C150      -1
    RHS       C151      -1
    RHS       C157      -1
    RHS       C176      -1
BOUNDS
 UP BOUND     x6        1
 UP BOUND     x79       1
 UP BOUND     x93       1
 UP BOUND     x272      1
 UP BOUND     x339      1
 UP BOUND     x545      1
 UP BOUND     x573      1
 UP BOUND     x597      1
 UP BOUND     x675      1
 UP BOUND     x726      1
 UP BOUND     x836      1
 UP BOUND     x874      1
 UP BOUND     x901      1
 UP BOUND     x1015     1
 UP BOUND     x1079     1
 UP BOUND     x1234     1
 UP BOUND     x1264     1
 UP BOUND     x1283     1
 UP BOUND     x1316     1
 UP BOUND     x1343     1
 UP BOUND     x1348     1
 UP BOUND     x1353     1
 UP BOUND     x1423     1
 UP BOUND     x1425     1
 UP BOUND     x1543     1
ENDATA
